
Gurobi 11.0.0 (linux64) logging started Wed Apr 10 21:13:11 2024

Set parameter LogFile to value "/lustre1/scratch/348/vsc34888/JointResearch/05.Models/06.Benchmarking/B.Operation_cost/9n_ByStages_nc50/openStarNet_9n_ByStages_nc50.log"
Set parameter Method to value 2
Set parameter MIPFocus to value 1
Set parameter Presolve to value 2
Set parameter RINS to value 100
Set parameter MIPGap to value 0.01
Set parameter Threads to value 36
Set parameter TimeLimit to value 259200
Set parameter IterationLimit to value 760000000
Gurobi Optimizer version 11.0.0 build v11.0.0rc2 (linux64 - "Rocky Linux 8.8 (Green Obsidian)")

CPU model: Intel(R) Xeon(R) Gold 6240 CPU @ 2.60GHz, instruction set [SSE2|AVX|AVX2|AVX512]
Thread count: 36 physical cores, 36 logical processors, using up to 36 threads

Optimize a model with 13103 rows, 6902 columns and 39414 nonzeros
Model fingerprint: 0x7759a8c3
Variable types: 6866 continuous, 36 integer (36 binary)
Coefficient statistics:
  Matrix range     [8e-04, 1e+03]
  Objective range  [1e+00, 1e+00]
  Bounds range     [4e-04, 2e+00]
  RHS range        [4e-04, 1e+00]
Presolve removed 4453 rows and 2354 columns
Presolve time: 0.06s
Presolved: 8650 rows, 4548 columns, 29512 nonzeros
Variable types: 4512 continuous, 36 integer (36 binary)
Found heuristic solution: objective 1119.8132565
Root relaxation presolved: 8650 rows, 4548 columns, 29512 nonzeros

Root barrier log...

Ordering time: 0.00s

Barrier statistics:
 Dense cols : 36
 AA' NZ     : 1.024e+05
 Factor NZ  : 2.029e+05 (roughly 7 MB of memory)
 Factor Ops : 6.756e+06 (less than 1 second per iteration)
 Threads    : 36

                  Objective                Residual
Iter       Primal          Dual         Primal    Dual     Compl     Time
   0   4.78665449e+05 -1.79952195e+07  7.22e+00 1.67e+02  4.15e+03     0s
   1   7.78638957e+04 -7.27737604e+06  9.98e-01 2.07e-09  6.35e+02     0s
   2   1.42758708e+04 -1.61625086e+06  2.57e-02 1.69e-09  9.85e+01     0s
   3   5.35177046e+03 -4.32278300e+04  3.55e-14 5.91e-11  2.88e+00     0s
   4   1.18214902e+03 -9.95211158e+03  1.24e-14 1.25e-11  6.59e-01     0s
   5   7.27607210e+02 -1.88237912e+03  1.15e-14 2.43e-12  1.54e-01     0s
   6   4.58770897e+02 -4.78396930e+02  1.55e-14 6.39e-13  5.55e-02     0s
   7   2.74924657e+02 -1.23816880e+02  4.41e-13 4.55e-13  2.36e-02     0s
   8   1.47211574e+02  3.23511378e+01  2.26e-13 4.55e-13  6.80e-03     0s
   9   1.04421114e+02  7.45812799e+01  5.15e-13 9.09e-13  1.77e-03     0s
  10   1.01079577e+02  8.49783636e+01  1.31e-12 4.55e-13  9.53e-04     0s
  11   9.92002706e+01  8.56630302e+01  1.03e-12 4.55e-13  8.01e-04     0s
  12   9.44451546e+01  8.91190902e+01  5.07e-12 9.09e-13  3.15e-04     0s
  13   9.38851804e+01  9.10987104e+01  4.48e-12 4.55e-13  1.65e-04     0s
  14   9.25796876e+01  9.17267619e+01  4.40e-11 4.55e-13  5.05e-05     0s
  15   9.23911275e+01  9.18967000e+01  2.78e-11 4.55e-13  2.93e-05     0s
  16   9.22443805e+01  9.21087870e+01  5.11e-11 9.09e-13  8.03e-06     0s
  17   9.22379067e+01  9.21442160e+01  1.94e-10 9.09e-13  5.55e-06     0s
  18   9.22065363e+01  9.21491272e+01  5.36e-10 9.09e-13  3.40e-06     0s
  19   9.21814031e+01  9.21779634e+01  8.26e-10 4.55e-13  2.04e-07     0s
  20   9.21795956e+01  9.21794570e+01  5.00e-10 9.09e-13  8.20e-09     0s
  21   9.21795141e+01  9.21795141e+01  1.17e-10 4.55e-13  1.32e-12     1s

Barrier solved model in 21 iterations and 0.50 seconds (0.22 work units)
Optimal objective 9.21795141e+01


Root relaxation: objective 9.217951e+01, 428 iterations, 0.46 seconds (0.11 work units)

    Nodes    |    Current Node    |     Objective Bounds      |     Work
 Expl Unexpl |  Obj  Depth IntInf | Incumbent    BestBd   Gap | It/Node Time

     0     0   92.17951    0    6 1119.81326   92.17951  91.8%     -    0s
H    0     0                     969.9537057   92.17951  90.5%     -    0s
H    0     0                     100.4984717   92.17951  8.28%     -    0s
     0     0          -    0       100.49847   99.79998  0.70%     -    0s

Cutting planes:
  Gomory: 3
  MIR: 89
  RLT: 1
  Relax-and-lift: 11

Explored 1 nodes (443 simplex iterations) in 0.93 seconds (0.29 work units)
Thread count was 36 (of 36 available processors)

Solution count 3: 100.498 969.954 1119.81 

Optimal solution found (tolerance 1.00e-02)
Best objective 1.004984717274e+02, best bound 9.979997954044e+01, gap 0.6950%

Gurobi 11.0.0 (linux64) logging started Wed Apr 10 21:13:13 2024

Set parameter LogFile to value "/lustre1/scratch/348/vsc34888/JointResearch/05.Models/06.Benchmarking/B.Operation_cost/9n_ByStages_nc50/openStarNet_9n_ByStages_nc50.log"
Set parameter Method to value 2
Set parameter MIPFocus to value 1
Set parameter Presolve to value 2
Set parameter RINS to value 100
Set parameter MIPGap to value 0.01
Set parameter Threads to value 36
Set parameter TimeLimit to value 259200
Set parameter IterationLimit to value 760000000
Gurobi Optimizer version 11.0.0 build v11.0.0rc2 (linux64 - "Rocky Linux 8.8 (Green Obsidian)")

CPU model: Intel(R) Xeon(R) Gold 6240 CPU @ 2.60GHz, instruction set [SSE2|AVX|AVX2|AVX512]
Thread count: 36 physical cores, 36 logical processors, using up to 36 threads

Optimize a model with 13103 rows, 6866 columns and 32178 nonzeros
Model fingerprint: 0x040b976d
Coefficient statistics:
  Matrix range     [8e-04, 1e+03]
  Objective range  [1e+00, 1e+00]
  Bounds range     [4e-04, 2e+00]
  RHS range        [4e-04, 2e+01]
Presolve removed 11982 rows and 4633 columns
Presolve time: 0.01s
Presolved: 1121 rows, 2283 columns, 4975 nonzeros

Ordering time: 0.00s

Barrier statistics:
 AA' NZ     : 2.384e+03
 Factor NZ  : 1.212e+04 (roughly 1 MB of memory)
 Factor Ops : 1.726e+05 (less than 1 second per iteration)
 Threads    : 1

                  Objective                Residual
Iter       Primal          Dual         Primal    Dual     Compl     Time
   0   5.70400071e+05 -9.86639822e+06  7.20e+00 4.44e+02  1.08e+04     0s
   1   7.25153441e+04 -5.21778996e+06  7.57e-01 9.79e-12  1.66e+03     0s
   2   1.97559548e+04 -1.38073758e+06  4.37e-02 1.27e-11  2.88e+02     0s
   3   1.03132788e+04 -7.09561040e+04  2.69e-14 3.07e-11  1.56e+01     0s
   4   1.55138254e+03 -4.27113726e+03  3.21e-14 5.89e-12  1.12e+00     0s
   5   8.40933547e+02 -1.18668239e+03  1.79e-14 2.25e-12  3.89e-01     0s
   6   5.44436317e+02 -3.05695781e+02  6.88e-15 1.82e-12  1.63e-01     0s
   7   2.58205682e+02 -1.97485621e+01  1.46e-14 1.82e-12  5.33e-02     0s
   8   1.70756663e+02  4.83012405e+01  9.00e-14 1.82e-12  2.35e-02     0s
   9   1.25655221e+02  8.64959289e+01  9.73e-14 9.09e-13  7.51e-03     0s
  10   1.04749638e+02  9.73018392e+01  4.13e-13 1.82e-12  1.43e-03     0s
  11   1.00941346e+02  1.00193965e+02  1.04e-13 1.82e-12  1.43e-04     0s
  12   1.00510839e+02  1.00494305e+02  8.33e-13 1.82e-12  3.17e-06     0s
  13   1.00498474e+02  1.00498471e+02  7.15e-12 9.09e-13  5.34e-10     0s
  14   1.00498472e+02  1.00498472e+02  1.34e-10 1.82e-12  5.36e-16     0s

Barrier solved model in 14 iterations and 0.03 seconds (0.02 work units)
Optimal objective 1.00498472e+02

Crossover log...

     586 DPushes remaining with DInf 0.0000000e+00                 0s
       0 DPushes remaining with DInf 0.0000000e+00                 0s

       6 PPushes remaining with PInf 0.0000000e+00                 0s
       0 PPushes remaining with PInf 0.0000000e+00                 0s

  Push phase complete: Pinf 0.0000000e+00, Dinf 2.5042468e-13      0s

Iteration    Objective       Primal Inf.    Dual Inf.      Time
      39    1.0049847e+02   0.000000e+00   0.000000e+00      0s

Solved in 39 iterations and 0.03 seconds (0.03 work units)
Optimal objective  1.004984717e+02
